c *********************************
c * Circuit generated by BenCGen
c *
c * RippleCarryAdder_115_115_115_InOutT
c *
c * Ports with 1 gate(s): 1
c * Ports with 2 gate(s): 576
c * Total gates: 577
c *********************************
p cnf 807 1960
1 348 0
-1 -348 0
1 -347 0
348 -347 0
-1 -348 347 0
1 116 -350 0
-1 116 350 0
1 -116 350 0
-1 -116 -350 0
350 347 -231 0
-350 347 231 0
350 -347 231 0
-350 -347 -231 0
347 -351 0
350 -351 0
-347 -350 351 0
116 -352 0
1 -352 0
-116 -1 352 0
-351 349 0
-352 349 0
351 352 -349 0
2 117 -354 0
-2 117 354 0
2 -117 354 0
-2 -117 -354 0
354 349 -232 0
-354 349 232 0
354 -349 232 0
-354 -349 -232 0
349 -355 0
354 -355 0
-349 -354 355 0
117 -356 0
2 -356 0
-117 -2 356 0
-355 353 0
-356 353 0
355 356 -353 0
3 118 -358 0
-3 118 358 0
3 -118 358 0
-3 -118 -358 0
358 353 -233 0
-358 353 233 0
358 -353 233 0
-358 -353 -233 0
353 -359 0
358 -359 0
-353 -358 359 0
118 -360 0
3 -360 0
-118 -3 360 0
-359 357 0
-360 357 0
359 360 -357 0
4 119 -362 0
-4 119 362 0
4 -119 362 0
-4 -119 -362 0
362 357 -234 0
-362 357 234 0
362 -357 234 0
-362 -357 -234 0
357 -363 0
362 -363 0
-357 -362 363 0
119 -364 0
4 -364 0
-119 -4 364 0
-363 361 0
-364 361 0
363 364 -361 0
5 120 -366 0
-5 120 366 0
5 -120 366 0
-5 -120 -366 0
366 361 -235 0
-366 361 235 0
366 -361 235 0
-366 -361 -235 0
361 -367 0
366 -367 0
-361 -366 367 0
120 -368 0
5 -368 0
-120 -5 368 0
-367 365 0
-368 365 0
367 368 -365 0
6 121 -370 0
-6 121 370 0
6 -121 370 0
-6 -121 -370 0
370 365 -236 0
-370 365 236 0
370 -365 236 0
-370 -365 -236 0
365 -371 0
370 -371 0
-365 -370 371 0
121 -372 0
6 -372 0
-121 -6 372 0
-371 369 0
-372 369 0
371 372 -369 0
7 122 -374 0
-7 122 374 0
7 -122 374 0
-7 -122 -374 0
374 369 -237 0
-374 369 237 0
374 -369 237 0
-374 -369 -237 0
369 -375 0
374 -375 0
-369 -374 375 0
122 -376 0
7 -376 0
-122 -7 376 0
-375 373 0
-376 373 0
375 376 -373 0
8 123 -378 0
-8 123 378 0
8 -123 378 0
-8 -123 -378 0
378 373 -238 0
-378 373 238 0
378 -373 238 0
-378 -373 -238 0
373 -379 0
378 -379 0
-373 -378 379 0
123 -380 0
8 -380 0
-123 -8 380 0
-379 377 0
-380 377 0
379 380 -377 0
9 124 -382 0
-9 124 382 0
9 -124 382 0
-9 -124 -382 0
382 377 -239 0
-382 377 239 0
382 -377 239 0
-382 -377 -239 0
377 -383 0
382 -383 0
-377 -382 383 0
124 -384 0
9 -384 0
-124 -9 384 0
-383 381 0
-384 381 0
383 384 -381 0
10 125 -386 0
-10 125 386 0
10 -125 386 0
-10 -125 -386 0
386 381 -240 0
-386 381 240 0
386 -381 240 0
-386 -381 -240 0
381 -387 0
386 -387 0
-381 -386 387 0
125 -388 0
10 -388 0
-125 -10 388 0
-387 385 0
-388 385 0
387 388 -385 0
11 126 -390 0
-11 126 390 0
11 -126 390 0
-11 -126 -390 0
390 385 -241 0
-390 385 241 0
390 -385 241 0
-390 -385 -241 0
385 -391 0
390 -391 0
-385 -390 391 0
126 -392 0
11 -392 0
-126 -11 392 0
-391 389 0
-392 389 0
391 392 -389 0
12 127 -394 0
-12 127 394 0
12 -127 394 0
-12 -127 -394 0
394 389 -242 0
-394 389 242 0
394 -389 242 0
-394 -389 -242 0
389 -395 0
394 -395 0
-389 -394 395 0
127 -396 0
12 -396 0
-127 -12 396 0
-395 393 0
-396 393 0
395 396 -393 0
13 128 -398 0
-13 128 398 0
13 -128 398 0
-13 -128 -398 0
398 393 -243 0
-398 393 243 0
398 -393 243 0
-398 -393 -243 0
393 -399 0
398 -399 0
-393 -398 399 0
128 -400 0
13 -400 0
-128 -13 400 0
-399 397 0
-400 397 0
399 400 -397 0
14 129 -402 0
-14 129 402 0
14 -129 402 0
-14 -129 -402 0
402 397 -244 0
-402 397 244 0
402 -397 244 0
-402 -397 -244 0
397 -403 0
402 -403 0
-397 -402 403 0
129 -404 0
14 -404 0
-129 -14 404 0
-403 401 0
-404 401 0
403 404 -401 0
15 130 -406 0
-15 130 406 0
15 -130 406 0
-15 -130 -406 0
406 401 -245 0
-406 401 245 0
406 -401 245 0
-406 -401 -245 0
401 -407 0
406 -407 0
-401 -406 407 0
130 -408 0
15 -408 0
-130 -15 408 0
-407 405 0
-408 405 0
407 408 -405 0
16 131 -410 0
-16 131 410 0
16 -131 410 0
-16 -131 -410 0
410 405 -246 0
-410 405 246 0
410 -405 246 0
-410 -405 -246 0
405 -411 0
410 -411 0
-405 -410 411 0
131 -412 0
16 -412 0
-131 -16 412 0
-411 409 0
-412 409 0
411 412 -409 0
17 132 -414 0
-17 132 414 0
17 -132 414 0
-17 -132 -414 0
414 409 -247 0
-414 409 247 0
414 -409 247 0
-414 -409 -247 0
409 -415 0
414 -415 0
-409 -414 415 0
132 -416 0
17 -416 0
-132 -17 416 0
-415 413 0
-416 413 0
415 416 -413 0
18 133 -418 0
-18 133 418 0
18 -133 418 0
-18 -133 -418 0
418 413 -248 0
-418 413 248 0
418 -413 248 0
-418 -413 -248 0
413 -419 0
418 -419 0
-413 -418 419 0
133 -420 0
18 -420 0
-133 -18 420 0
-419 417 0
-420 417 0
419 420 -417 0
19 134 -422 0
-19 134 422 0
19 -134 422 0
-19 -134 -422 0
422 417 -249 0
-422 417 249 0
422 -417 249 0
-422 -417 -249 0
417 -423 0
422 -423 0
-417 -422 423 0
134 -424 0
19 -424 0
-134 -19 424 0
-423 421 0
-424 421 0
423 424 -421 0
20 135 -426 0
-20 135 426 0
20 -135 426 0
-20 -135 -426 0
426 421 -250 0
-426 421 250 0
426 -421 250 0
-426 -421 -250 0
421 -427 0
426 -427 0
-421 -426 427 0
135 -428 0
20 -428 0
-135 -20 428 0
-427 425 0
-428 425 0
427 428 -425 0
21 136 -430 0
-21 136 430 0
21 -136 430 0
-21 -136 -430 0
430 425 -251 0
-430 425 251 0
430 -425 251 0
-430 -425 -251 0
425 -431 0
430 -431 0
-425 -430 431 0
136 -432 0
21 -432 0
-136 -21 432 0
-431 429 0
-432 429 0
431 432 -429 0
22 137 -434 0
-22 137 434 0
22 -137 434 0
-22 -137 -434 0
434 429 -252 0
-434 429 252 0
434 -429 252 0
-434 -429 -252 0
429 -435 0
434 -435 0
-429 -434 435 0
137 -436 0
22 -436 0
-137 -22 436 0
-435 433 0
-436 433 0
435 436 -433 0
23 138 -438 0
-23 138 438 0
23 -138 438 0
-23 -138 -438 0
438 433 -253 0
-438 433 253 0
438 -433 253 0
-438 -433 -253 0
433 -439 0
438 -439 0
-433 -438 439 0
138 -440 0
23 -440 0
-138 -23 440 0
-439 437 0
-440 437 0
439 440 -437 0
24 139 -442 0
-24 139 442 0
24 -139 442 0
-24 -139 -442 0
442 437 -254 0
-442 437 254 0
442 -437 254 0
-442 -437 -254 0
437 -443 0
442 -443 0
-437 -442 443 0
139 -444 0
24 -444 0
-139 -24 444 0
-443 441 0
-444 441 0
443 444 -441 0
25 140 -446 0
-25 140 446 0
25 -140 446 0
-25 -140 -446 0
446 441 -255 0
-446 441 255 0
446 -441 255 0
-446 -441 -255 0
441 -447 0
446 -447 0
-441 -446 447 0
140 -448 0
25 -448 0
-140 -25 448 0
-447 445 0
-448 445 0
447 448 -445 0
26 141 -450 0
-26 141 450 0
26 -141 450 0
-26 -141 -450 0
450 445 -256 0
-450 445 256 0
450 -445 256 0
-450 -445 -256 0
445 -451 0
450 -451 0
-445 -450 451 0
141 -452 0
26 -452 0
-141 -26 452 0
-451 449 0
-452 449 0
451 452 -449 0
27 142 -454 0
-27 142 454 0
27 -142 454 0
-27 -142 -454 0
454 449 -257 0
-454 449 257 0
454 -449 257 0
-454 -449 -257 0
449 -455 0
454 -455 0
-449 -454 455 0
142 -456 0
27 -456 0
-142 -27 456 0
-455 453 0
-456 453 0
455 456 -453 0
28 143 -458 0
-28 143 458 0
28 -143 458 0
-28 -143 -458 0
458 453 -258 0
-458 453 258 0
458 -453 258 0
-458 -453 -258 0
453 -459 0
458 -459 0
-453 -458 459 0
143 -460 0
28 -460 0
-143 -28 460 0
-459 457 0
-460 457 0
459 460 -457 0
29 144 -462 0
-29 144 462 0
29 -144 462 0
-29 -144 -462 0
462 457 -259 0
-462 457 259 0
462 -457 259 0
-462 -457 -259 0
457 -463 0
462 -463 0
-457 -462 463 0
144 -464 0
29 -464 0
-144 -29 464 0
-463 461 0
-464 461 0
463 464 -461 0
30 145 -466 0
-30 145 466 0
30 -145 466 0
-30 -145 -466 0
466 461 -260 0
-466 461 260 0
466 -461 260 0
-466 -461 -260 0
461 -467 0
466 -467 0
-461 -466 467 0
145 -468 0
30 -468 0
-145 -30 468 0
-467 465 0
-468 465 0
467 468 -465 0
31 146 -470 0
-31 146 470 0
31 -146 470 0
-31 -146 -470 0
470 465 -261 0
-470 465 261 0
470 -465 261 0
-470 -465 -261 0
465 -471 0
470 -471 0
-465 -470 471 0
146 -472 0
31 -472 0
-146 -31 472 0
-471 469 0
-472 469 0
471 472 -469 0
32 147 -474 0
-32 147 474 0
32 -147 474 0
-32 -147 -474 0
474 469 -262 0
-474 469 262 0
474 -469 262 0
-474 -469 -262 0
469 -475 0
474 -475 0
-469 -474 475 0
147 -476 0
32 -476 0
-147 -32 476 0
-475 473 0
-476 473 0
475 476 -473 0
33 148 -478 0
-33 148 478 0
33 -148 478 0
-33 -148 -478 0
478 473 -263 0
-478 473 263 0
478 -473 263 0
-478 -473 -263 0
473 -479 0
478 -479 0
-473 -478 479 0
148 -480 0
33 -480 0
-148 -33 480 0
-479 477 0
-480 477 0
479 480 -477 0
34 149 -482 0
-34 149 482 0
34 -149 482 0
-34 -149 -482 0
482 477 -264 0
-482 477 264 0
482 -477 264 0
-482 -477 -264 0
477 -483 0
482 -483 0
-477 -482 483 0
149 -484 0
34 -484 0
-149 -34 484 0
-483 481 0
-484 481 0
483 484 -481 0
35 150 -486 0
-35 150 486 0
35 -150 486 0
-35 -150 -486 0
486 481 -265 0
-486 481 265 0
486 -481 265 0
-486 -481 -265 0
481 -487 0
486 -487 0
-481 -486 487 0
150 -488 0
35 -488 0
-150 -35 488 0
-487 485 0
-488 485 0
487 488 -485 0
36 151 -490 0
-36 151 490 0
36 -151 490 0
-36 -151 -490 0
490 485 -266 0
-490 485 266 0
490 -485 266 0
-490 -485 -266 0
485 -491 0
490 -491 0
-485 -490 491 0
151 -492 0
36 -492 0
-151 -36 492 0
-491 489 0
-492 489 0
491 492 -489 0
37 152 -494 0
-37 152 494 0
37 -152 494 0
-37 -152 -494 0
494 489 -267 0
-494 489 267 0
494 -489 267 0
-494 -489 -267 0
489 -495 0
494 -495 0
-489 -494 495 0
152 -496 0
37 -496 0
-152 -37 496 0
-495 493 0
-496 493 0
495 496 -493 0
38 153 -498 0
-38 153 498 0
38 -153 498 0
-38 -153 -498 0
498 493 -268 0
-498 493 268 0
498 -493 268 0
-498 -493 -268 0
493 -499 0
498 -499 0
-493 -498 499 0
153 -500 0
38 -500 0
-153 -38 500 0
-499 497 0
-500 497 0
499 500 -497 0
39 154 -502 0
-39 154 502 0
39 -154 502 0
-39 -154 -502 0
502 497 -269 0
-502 497 269 0
502 -497 269 0
-502 -497 -269 0
497 -503 0
502 -503 0
-497 -502 503 0
154 -504 0
39 -504 0
-154 -39 504 0
-503 501 0
-504 501 0
503 504 -501 0
40 155 -506 0
-40 155 506 0
40 -155 506 0
-40 -155 -506 0
506 501 -270 0
-506 501 270 0
506 -501 270 0
-506 -501 -270 0
501 -507 0
506 -507 0
-501 -506 507 0
155 -508 0
40 -508 0
-155 -40 508 0
-507 505 0
-508 505 0
507 508 -505 0
41 156 -510 0
-41 156 510 0
41 -156 510 0
-41 -156 -510 0
510 505 -271 0
-510 505 271 0
510 -505 271 0
-510 -505 -271 0
505 -511 0
510 -511 0
-505 -510 511 0
156 -512 0
41 -512 0
-156 -41 512 0
-511 509 0
-512 509 0
511 512 -509 0
42 157 -514 0
-42 157 514 0
42 -157 514 0
-42 -157 -514 0
514 509 -272 0
-514 509 272 0
514 -509 272 0
-514 -509 -272 0
509 -515 0
514 -515 0
-509 -514 515 0
157 -516 0
42 -516 0
-157 -42 516 0
-515 513 0
-516 513 0
515 516 -513 0
43 158 -518 0
-43 158 518 0
43 -158 518 0
-43 -158 -518 0
518 513 -273 0
-518 513 273 0
518 -513 273 0
-518 -513 -273 0
513 -519 0
518 -519 0
-513 -518 519 0
158 -520 0
43 -520 0
-158 -43 520 0
-519 517 0
-520 517 0
519 520 -517 0
44 159 -522 0
-44 159 522 0
44 -159 522 0
-44 -159 -522 0
522 517 -274 0
-522 517 274 0
522 -517 274 0
-522 -517 -274 0
517 -523 0
522 -523 0
-517 -522 523 0
159 -524 0
44 -524 0
-159 -44 524 0
-523 521 0
-524 521 0
523 524 -521 0
45 160 -526 0
-45 160 526 0
45 -160 526 0
-45 -160 -526 0
526 521 -275 0
-526 521 275 0
526 -521 275 0
-526 -521 -275 0
521 -527 0
526 -527 0
-521 -526 527 0
160 -528 0
45 -528 0
-160 -45 528 0
-527 525 0
-528 525 0
527 528 -525 0
46 161 -530 0
-46 161 530 0
46 -161 530 0
-46 -161 -530 0
530 525 -276 0
-530 525 276 0
530 -525 276 0
-530 -525 -276 0
525 -531 0
530 -531 0
-525 -530 531 0
161 -532 0
46 -532 0
-161 -46 532 0
-531 529 0
-532 529 0
531 532 -529 0
47 162 -534 0
-47 162 534 0
47 -162 534 0
-47 -162 -534 0
534 529 -277 0
-534 529 277 0
534 -529 277 0
-534 -529 -277 0
529 -535 0
534 -535 0
-529 -534 535 0
162 -536 0
47 -536 0
-162 -47 536 0
-535 533 0
-536 533 0
535 536 -533 0
48 163 -538 0
-48 163 538 0
48 -163 538 0
-48 -163 -538 0
538 533 -278 0
-538 533 278 0
538 -533 278 0
-538 -533 -278 0
533 -539 0
538 -539 0
-533 -538 539 0
163 -540 0
48 -540 0
-163 -48 540 0
-539 537 0
-540 537 0
539 540 -537 0
49 164 -542 0
-49 164 542 0
49 -164 542 0
-49 -164 -542 0
542 537 -279 0
-542 537 279 0
542 -537 279 0
-542 -537 -279 0
537 -543 0
542 -543 0
-537 -542 543 0
164 -544 0
49 -544 0
-164 -49 544 0
-543 541 0
-544 541 0
543 544 -541 0
50 165 -546 0
-50 165 546 0
50 -165 546 0
-50 -165 -546 0
546 541 -280 0
-546 541 280 0
546 -541 280 0
-546 -541 -280 0
541 -547 0
546 -547 0
-541 -546 547 0
165 -548 0
50 -548 0
-165 -50 548 0
-547 545 0
-548 545 0
547 548 -545 0
51 166 -550 0
-51 166 550 0
51 -166 550 0
-51 -166 -550 0
550 545 -281 0
-550 545 281 0
550 -545 281 0
-550 -545 -281 0
545 -551 0
550 -551 0
-545 -550 551 0
166 -552 0
51 -552 0
-166 -51 552 0
-551 549 0
-552 549 0
551 552 -549 0
52 167 -554 0
-52 167 554 0
52 -167 554 0
-52 -167 -554 0
554 549 -282 0
-554 549 282 0
554 -549 282 0
-554 -549 -282 0
549 -555 0
554 -555 0
-549 -554 555 0
167 -556 0
52 -556 0
-167 -52 556 0
-555 553 0
-556 553 0
555 556 -553 0
53 168 -558 0
-53 168 558 0
53 -168 558 0
-53 -168 -558 0
558 553 -283 0
-558 553 283 0
558 -553 283 0
-558 -553 -283 0
553 -559 0
558 -559 0
-553 -558 559 0
168 -560 0
53 -560 0
-168 -53 560 0
-559 557 0
-560 557 0
559 560 -557 0
54 169 -562 0
-54 169 562 0
54 -169 562 0
-54 -169 -562 0
562 557 -284 0
-562 557 284 0
562 -557 284 0
-562 -557 -284 0
557 -563 0
562 -563 0
-557 -562 563 0
169 -564 0
54 -564 0
-169 -54 564 0
-563 561 0
-564 561 0
563 564 -561 0
55 170 -566 0
-55 170 566 0
55 -170 566 0
-55 -170 -566 0
566 561 -285 0
-566 561 285 0
566 -561 285 0
-566 -561 -285 0
561 -567 0
566 -567 0
-561 -566 567 0
170 -568 0
55 -568 0
-170 -55 568 0
-567 565 0
-568 565 0
567 568 -565 0
56 171 -570 0
-56 171 570 0
56 -171 570 0
-56 -171 -570 0
570 565 -286 0
-570 565 286 0
570 -565 286 0
-570 -565 -286 0
565 -571 0
570 -571 0
-565 -570 571 0
171 -572 0
56 -572 0
-171 -56 572 0
-571 569 0
-572 569 0
571 572 -569 0
57 172 -574 0
-57 172 574 0
57 -172 574 0
-57 -172 -574 0
574 569 -287 0
-574 569 287 0
574 -569 287 0
-574 -569 -287 0
569 -575 0
574 -575 0
-569 -574 575 0
172 -576 0
57 -576 0
-172 -57 576 0
-575 573 0
-576 573 0
575 576 -573 0
58 173 -578 0
-58 173 578 0
58 -173 578 0
-58 -173 -578 0
578 573 -288 0
-578 573 288 0
578 -573 288 0
-578 -573 -288 0
573 -579 0
578 -579 0
-573 -578 579 0
173 -580 0
58 -580 0
-173 -58 580 0
-579 577 0
-580 577 0
579 580 -577 0
59 174 -582 0
-59 174 582 0
59 -174 582 0
-59 -174 -582 0
582 577 -289 0
-582 577 289 0
582 -577 289 0
-582 -577 -289 0
577 -583 0
582 -583 0
-577 -582 583 0
174 -584 0
59 -584 0
-174 -59 584 0
-583 581 0
-584 581 0
583 584 -581 0
60 175 -586 0
-60 175 586 0
60 -175 586 0
-60 -175 -586 0
586 581 -290 0
-586 581 290 0
586 -581 290 0
-586 -581 -290 0
581 -587 0
586 -587 0
-581 -586 587 0
175 -588 0
60 -588 0
-175 -60 588 0
-587 585 0
-588 585 0
587 588 -585 0
61 176 -590 0
-61 176 590 0
61 -176 590 0
-61 -176 -590 0
590 585 -291 0
-590 585 291 0
590 -585 291 0
-590 -585 -291 0
585 -591 0
590 -591 0
-585 -590 591 0
176 -592 0
61 -592 0
-176 -61 592 0
-591 589 0
-592 589 0
591 592 -589 0
62 177 -594 0
-62 177 594 0
62 -177 594 0
-62 -177 -594 0
594 589 -292 0
-594 589 292 0
594 -589 292 0
-594 -589 -292 0
589 -595 0
594 -595 0
-589 -594 595 0
177 -596 0
62 -596 0
-177 -62 596 0
-595 593 0
-596 593 0
595 596 -593 0
63 178 -598 0
-63 178 598 0
63 -178 598 0
-63 -178 -598 0
598 593 -293 0
-598 593 293 0
598 -593 293 0
-598 -593 -293 0
593 -599 0
598 -599 0
-593 -598 599 0
178 -600 0
63 -600 0
-178 -63 600 0
-599 597 0
-600 597 0
599 600 -597 0
64 179 -602 0
-64 179 602 0
64 -179 602 0
-64 -179 -602 0
602 597 -294 0
-602 597 294 0
602 -597 294 0
-602 -597 -294 0
597 -603 0
602 -603 0
-597 -602 603 0
179 -604 0
64 -604 0
-179 -64 604 0
-603 601 0
-604 601 0
603 604 -601 0
65 180 -606 0
-65 180 606 0
65 -180 606 0
-65 -180 -606 0
606 601 -295 0
-606 601 295 0
606 -601 295 0
-606 -601 -295 0
601 -607 0
606 -607 0
-601 -606 607 0
180 -608 0
65 -608 0
-180 -65 608 0
-607 605 0
-608 605 0
607 608 -605 0
66 181 -610 0
-66 181 610 0
66 -181 610 0
-66 -181 -610 0
610 605 -296 0
-610 605 296 0
610 -605 296 0
-610 -605 -296 0
605 -611 0
610 -611 0
-605 -610 611 0
181 -612 0
66 -612 0
-181 -66 612 0
-611 609 0
-612 609 0
611 612 -609 0
67 182 -614 0
-67 182 614 0
67 -182 614 0
-67 -182 -614 0
614 609 -297 0
-614 609 297 0
614 -609 297 0
-614 -609 -297 0
609 -615 0
614 -615 0
-609 -614 615 0
182 -616 0
67 -616 0
-182 -67 616 0
-615 613 0
-616 613 0
615 616 -613 0
68 183 -618 0
-68 183 618 0
68 -183 618 0
-68 -183 -618 0
618 613 -298 0
-618 613 298 0
618 -613 298 0
-618 -613 -298 0
613 -619 0
618 -619 0
-613 -618 619 0
183 -620 0
68 -620 0
-183 -68 620 0
-619 617 0
-620 617 0
619 620 -617 0
69 184 -622 0
-69 184 622 0
69 -184 622 0
-69 -184 -622 0
622 617 -299 0
-622 617 299 0
622 -617 299 0
-622 -617 -299 0
617 -623 0
622 -623 0
-617 -622 623 0
184 -624 0
69 -624 0
-184 -69 624 0
-623 621 0
-624 621 0
623 624 -621 0
70 185 -626 0
-70 185 626 0
70 -185 626 0
-70 -185 -626 0
626 621 -300 0
-626 621 300 0
626 -621 300 0
-626 -621 -300 0
621 -627 0
626 -627 0
-621 -626 627 0
185 -628 0
70 -628 0
-185 -70 628 0
-627 625 0
-628 625 0
627 628 -625 0
71 186 -630 0
-71 186 630 0
71 -186 630 0
-71 -186 -630 0
630 625 -301 0
-630 625 301 0
630 -625 301 0
-630 -625 -301 0
625 -631 0
630 -631 0
-625 -630 631 0
186 -632 0
71 -632 0
-186 -71 632 0
-631 629 0
-632 629 0
631 632 -629 0
72 187 -634 0
-72 187 634 0
72 -187 634 0
-72 -187 -634 0
634 629 -302 0
-634 629 302 0
634 -629 302 0
-634 -629 -302 0
629 -635 0
634 -635 0
-629 -634 635 0
187 -636 0
72 -636 0
-187 -72 636 0
-635 633 0
-636 633 0
635 636 -633 0
73 188 -638 0
-73 188 638 0
73 -188 638 0
-73 -188 -638 0
638 633 -303 0
-638 633 303 0
638 -633 303 0
-638 -633 -303 0
633 -639 0
638 -639 0
-633 -638 639 0
188 -640 0
73 -640 0
-188 -73 640 0
-639 637 0
-640 637 0
639 640 -637 0
74 189 -642 0
-74 189 642 0
74 -189 642 0
-74 -189 -642 0
642 637 -304 0
-642 637 304 0
642 -637 304 0
-642 -637 -304 0
637 -643 0
642 -643 0
-637 -642 643 0
189 -644 0
74 -644 0
-189 -74 644 0
-643 641 0
-644 641 0
643 644 -641 0
75 190 -646 0
-75 190 646 0
75 -190 646 0
-75 -190 -646 0
646 641 -305 0
-646 641 305 0
646 -641 305 0
-646 -641 -305 0
641 -647 0
646 -647 0
-641 -646 647 0
190 -648 0
75 -648 0
-190 -75 648 0
-647 645 0
-648 645 0
647 648 -645 0
76 191 -650 0
-76 191 650 0
76 -191 650 0
-76 -191 -650 0
650 645 -306 0
-650 645 306 0
650 -645 306 0
-650 -645 -306 0
645 -651 0
650 -651 0
-645 -650 651 0
191 -652 0
76 -652 0
-191 -76 652 0
-651 649 0
-652 649 0
651 652 -649 0
77 192 -654 0
-77 192 654 0
77 -192 654 0
-77 -192 -654 0
654 649 -307 0
-654 649 307 0
654 -649 307 0
-654 -649 -307 0
649 -655 0
654 -655 0
-649 -654 655 0
192 -656 0
77 -656 0
-192 -77 656 0
-655 653 0
-656 653 0
655 656 -653 0
78 193 -658 0
-78 193 658 0
78 -193 658 0
-78 -193 -658 0
658 653 -308 0
-658 653 308 0
658 -653 308 0
-658 -653 -308 0
653 -659 0
658 -659 0
-653 -658 659 0
193 -660 0
78 -660 0
-193 -78 660 0
-659 657 0
-660 657 0
659 660 -657 0
79 194 -662 0
-79 194 662 0
79 -194 662 0
-79 -194 -662 0
662 657 -309 0
-662 657 309 0
662 -657 309 0
-662 -657 -309 0
657 -663 0
662 -663 0
-657 -662 663 0
194 -664 0
79 -664 0
-194 -79 664 0
-663 661 0
-664 661 0
663 664 -661 0
80 195 -666 0
-80 195 666 0
80 -195 666 0
-80 -195 -666 0
666 661 -310 0
-666 661 310 0
666 -661 310 0
-666 -661 -310 0
661 -667 0
666 -667 0
-661 -666 667 0
195 -668 0
80 -668 0
-195 -80 668 0
-667 665 0
-668 665 0
667 668 -665 0
81 196 -670 0
-81 196 670 0
81 -196 670 0
-81 -196 -670 0
670 665 -311 0
-670 665 311 0
670 -665 311 0
-670 -665 -311 0
665 -671 0
670 -671 0
-665 -670 671 0
196 -672 0
81 -672 0
-196 -81 672 0
-671 669 0
-672 669 0
671 672 -669 0
82 197 -674 0
-82 197 674 0
82 -197 674 0
-82 -197 -674 0
674 669 -312 0
-674 669 312 0
674 -669 312 0
-674 -669 -312 0
669 -675 0
674 -675 0
-669 -674 675 0
197 -676 0
82 -676 0
-197 -82 676 0
-675 673 0
-676 673 0
675 676 -673 0
83 198 -678 0
-83 198 678 0
83 -198 678 0
-83 -198 -678 0
678 673 -313 0
-678 673 313 0
678 -673 313 0
-678 -673 -313 0
673 -679 0
678 -679 0
-673 -678 679 0
198 -680 0
83 -680 0
-198 -83 680 0
-679 677 0
-680 677 0
679 680 -677 0
84 199 -682 0
-84 199 682 0
84 -199 682 0
-84 -199 -682 0
682 677 -314 0
-682 677 314 0
682 -677 314 0
-682 -677 -314 0
677 -683 0
682 -683 0
-677 -682 683 0
199 -684 0
84 -684 0
-199 -84 684 0
-683 681 0
-684 681 0
683 684 -681 0
85 200 -686 0
-85 200 686 0
85 -200 686 0
-85 -200 -686 0
686 681 -315 0
-686 681 315 0
686 -681 315 0
-686 -681 -315 0
681 -687 0
686 -687 0
-681 -686 687 0
200 -688 0
85 -688 0
-200 -85 688 0
-687 685 0
-688 685 0
687 688 -685 0
86 201 -690 0
-86 201 690 0
86 -201 690 0
-86 -201 -690 0
690 685 -316 0
-690 685 316 0
690 -685 316 0
-690 -685 -316 0
685 -691 0
690 -691 0
-685 -690 691 0
201 -692 0
86 -692 0
-201 -86 692 0
-691 689 0
-692 689 0
691 692 -689 0
87 202 -694 0
-87 202 694 0
87 -202 694 0
-87 -202 -694 0
694 689 -317 0
-694 689 317 0
694 -689 317 0
-694 -689 -317 0
689 -695 0
694 -695 0
-689 -694 695 0
202 -696 0
87 -696 0
-202 -87 696 0
-695 693 0
-696 693 0
695 696 -693 0
88 203 -698 0
-88 203 698 0
88 -203 698 0
-88 -203 -698 0
698 693 -318 0
-698 693 318 0
698 -693 318 0
-698 -693 -318 0
693 -699 0
698 -699 0
-693 -698 699 0
203 -700 0
88 -700 0
-203 -88 700 0
-699 697 0
-700 697 0
699 700 -697 0
89 204 -702 0
-89 204 702 0
89 -204 702 0
-89 -204 -702 0
702 697 -319 0
-702 697 319 0
702 -697 319 0
-702 -697 -319 0
697 -703 0
702 -703 0
-697 -702 703 0
204 -704 0
89 -704 0
-204 -89 704 0
-703 701 0
-704 701 0
703 704 -701 0
90 205 -706 0
-90 205 706 0
90 -205 706 0
-90 -205 -706 0
706 701 -320 0
-706 701 320 0
706 -701 320 0
-706 -701 -320 0
701 -707 0
706 -707 0
-701 -706 707 0
205 -708 0
90 -708 0
-205 -90 708 0
-707 705 0
-708 705 0
707 708 -705 0
91 206 -710 0
-91 206 710 0
91 -206 710 0
-91 -206 -710 0
710 705 -321 0
-710 705 321 0
710 -705 321 0
-710 -705 -321 0
705 -711 0
710 -711 0
-705 -710 711 0
206 -712 0
91 -712 0
-206 -91 712 0
-711 709 0
-712 709 0
711 712 -709 0
92 207 -714 0
-92 207 714 0
92 -207 714 0
-92 -207 -714 0
714 709 -322 0
-714 709 322 0
714 -709 322 0
-714 -709 -322 0
709 -715 0
714 -715 0
-709 -714 715 0
207 -716 0
92 -716 0
-207 -92 716 0
-715 713 0
-716 713 0
715 716 -713 0
93 208 -718 0
-93 208 718 0
93 -208 718 0
-93 -208 -718 0
718 713 -323 0
-718 713 323 0
718 -713 323 0
-718 -713 -323 0
713 -719 0
718 -719 0
-713 -718 719 0
208 -720 0
93 -720 0
-208 -93 720 0
-719 717 0
-720 717 0
719 720 -717 0
94 209 -722 0
-94 209 722 0
94 -209 722 0
-94 -209 -722 0
722 717 -324 0
-722 717 324 0
722 -717 324 0
-722 -717 -324 0
717 -723 0
722 -723 0
-717 -722 723 0
209 -724 0
94 -724 0
-209 -94 724 0
-723 721 0
-724 721 0
723 724 -721 0
95 210 -726 0
-95 210 726 0
95 -210 726 0
-95 -210 -726 0
726 721 -325 0
-726 721 325 0
726 -721 325 0
-726 -721 -325 0
721 -727 0
726 -727 0
-721 -726 727 0
210 -728 0
95 -728 0
-210 -95 728 0
-727 725 0
-728 725 0
727 728 -725 0
96 211 -730 0
-96 211 730 0
96 -211 730 0
-96 -211 -730 0
730 725 -326 0
-730 725 326 0
730 -725 326 0
-730 -725 -326 0
725 -731 0
730 -731 0
-725 -730 731 0
211 -732 0
96 -732 0
-211 -96 732 0
-731 729 0
-732 729 0
731 732 -729 0
97 212 -734 0
-97 212 734 0
97 -212 734 0
-97 -212 -734 0
734 729 -327 0
-734 729 327 0
734 -729 327 0
-734 -729 -327 0
729 -735 0
734 -735 0
-729 -734 735 0
212 -736 0
97 -736 0
-212 -97 736 0
-735 733 0
-736 733 0
735 736 -733 0
98 213 -738 0
-98 213 738 0
98 -213 738 0
-98 -213 -738 0
738 733 -328 0
-738 733 328 0
738 -733 328 0
-738 -733 -328 0
733 -739 0
738 -739 0
-733 -738 739 0
213 -740 0
98 -740 0
-213 -98 740 0
-739 737 0
-740 737 0
739 740 -737 0
99 214 -742 0
-99 214 742 0
99 -214 742 0
-99 -214 -742 0
742 737 -329 0
-742 737 329 0
742 -737 329 0
-742 -737 -329 0
737 -743 0
742 -743 0
-737 -742 743 0
214 -744 0
99 -744 0
-214 -99 744 0
-743 741 0
-744 741 0
743 744 -741 0
100 215 -746 0
-100 215 746 0
100 -215 746 0
-100 -215 -746 0
746 741 -330 0
-746 741 330 0
746 -741 330 0
-746 -741 -330 0
741 -747 0
746 -747 0
-741 -746 747 0
215 -748 0
100 -748 0
-215 -100 748 0
-747 745 0
-748 745 0
747 748 -745 0
101 216 -750 0
-101 216 750 0
101 -216 750 0
-101 -216 -750 0
750 745 -331 0
-750 745 331 0
750 -745 331 0
-750 -745 -331 0
745 -751 0
750 -751 0
-745 -750 751 0
216 -752 0
101 -752 0
-216 -101 752 0
-751 749 0
-752 749 0
751 752 -749 0
102 217 -754 0
-102 217 754 0
102 -217 754 0
-102 -217 -754 0
754 749 -332 0
-754 749 332 0
754 -749 332 0
-754 -749 -332 0
749 -755 0
754 -755 0
-749 -754 755 0
217 -756 0
102 -756 0
-217 -102 756 0
-755 753 0
-756 753 0
755 756 -753 0
103 218 -758 0
-103 218 758 0
103 -218 758 0
-103 -218 -758 0
758 753 -333 0
-758 753 333 0
758 -753 333 0
-758 -753 -333 0
753 -759 0
758 -759 0
-753 -758 759 0
218 -760 0
103 -760 0
-218 -103 760 0
-759 757 0
-760 757 0
759 760 -757 0
104 219 -762 0
-104 219 762 0
104 -219 762 0
-104 -219 -762 0
762 757 -334 0
-762 757 334 0
762 -757 334 0
-762 -757 -334 0
757 -763 0
762 -763 0
-757 -762 763 0
219 -764 0
104 -764 0
-219 -104 764 0
-763 761 0
-764 761 0
763 764 -761 0
105 220 -766 0
-105 220 766 0
105 -220 766 0
-105 -220 -766 0
766 761 -335 0
-766 761 335 0
766 -761 335 0
-766 -761 -335 0
761 -767 0
766 -767 0
-761 -766 767 0
220 -768 0
105 -768 0
-220 -105 768 0
-767 765 0
-768 765 0
767 768 -765 0
106 221 -770 0
-106 221 770 0
106 -221 770 0
-106 -221 -770 0
770 765 -336 0
-770 765 336 0
770 -765 336 0
-770 -765 -336 0
765 -771 0
770 -771 0
-765 -770 771 0
221 -772 0
106 -772 0
-221 -106 772 0
-771 769 0
-772 769 0
771 772 -769 0
107 222 -774 0
-107 222 774 0
107 -222 774 0
-107 -222 -774 0
774 769 -337 0
-774 769 337 0
774 -769 337 0
-774 -769 -337 0
769 -775 0
774 -775 0
-769 -774 775 0
222 -776 0
107 -776 0
-222 -107 776 0
-775 773 0
-776 773 0
775 776 -773 0
108 223 -778 0
-108 223 778 0
108 -223 778 0
-108 -223 -778 0
778 773 -338 0
-778 773 338 0
778 -773 338 0
-778 -773 -338 0
773 -779 0
778 -779 0
-773 -778 779 0
223 -780 0
108 -780 0
-223 -108 780 0
-779 777 0
-780 777 0
779 780 -777 0
109 224 -782 0
-109 224 782 0
109 -224 782 0
-109 -224 -782 0
782 777 -339 0
-782 777 339 0
782 -777 339 0
-782 -777 -339 0
777 -783 0
782 -783 0
-777 -782 783 0
224 -784 0
109 -784 0
-224 -109 784 0
-783 781 0
-784 781 0
783 784 -781 0
110 225 -786 0
-110 225 786 0
110 -225 786 0
-110 -225 -786 0
786 781 -340 0
-786 781 340 0
786 -781 340 0
-786 -781 -340 0
781 -787 0
786 -787 0
-781 -786 787 0
225 -788 0
110 -788 0
-225 -110 788 0
-787 785 0
-788 785 0
787 788 -785 0
111 226 -790 0
-111 226 790 0
111 -226 790 0
-111 -226 -790 0
790 785 -341 0
-790 785 341 0
790 -785 341 0
-790 -785 -341 0
785 -791 0
790 -791 0
-785 -790 791 0
226 -792 0
111 -792 0
-226 -111 792 0
-791 789 0
-792 789 0
791 792 -789 0
112 227 -794 0
-112 227 794 0
112 -227 794 0
-112 -227 -794 0
794 789 -342 0
-794 789 342 0
794 -789 342 0
-794 -789 -342 0
789 -795 0
794 -795 0
-789 -794 795 0
227 -796 0
112 -796 0
-227 -112 796 0
-795 793 0
-796 793 0
795 796 -793 0
113 228 -798 0
-113 228 798 0
113 -228 798 0
-113 -228 -798 0
798 793 -343 0
-798 793 343 0
798 -793 343 0
-798 -793 -343 0
793 -799 0
798 -799 0
-793 -798 799 0
228 -800 0
113 -800 0
-228 -113 800 0
-799 797 0
-800 797 0
799 800 -797 0
114 229 -802 0
-114 229 802 0
114 -229 802 0
-114 -229 -802 0
802 797 -344 0
-802 797 344 0
802 -797 344 0
-802 -797 -344 0
797 -803 0
802 -803 0
-797 -802 803 0
229 -804 0
114 -804 0
-229 -114 804 0
-803 801 0
-804 801 0
803 804 -801 0
115 230 -805 0
-115 230 805 0
115 -230 805 0
-115 -230 -805 0
805 801 -345 0
-805 801 345 0
805 -801 345 0
-805 -801 -345 0
801 -806 0
805 -806 0
-801 -805 806 0
230 -807 0
115 -807 0
-230 -115 807 0
-806 346 0
-807 346 0
806 807 -346 0
